\ENCODING=ISO-8859-1
\Problem name: 

Minimize
 obj1: y0 + 0 s_c51 + 0 s_c52 + 0 s_c53 + 0 s_c54 + 0 s_c55
Subject To
 c0#0:     y0 - 17 q_00 - 2 q_01 - 82 q_02 - 40 q_03 - 60 q_04 - 21 q_05
           - 84 q_06 - 76 q_07 - 44 q_08 - 18 q_09 - 78 q_10 - 17 q_11
           - 73 q_12 - 15 q_13 - q_14 - 66 q_15 - 58 q_16 - 62 q_17 - 46 q_18
           - 21 q_19 - 52 q_20 - 58 q_21 - 57 q_22 - 54 q_23 - 79 q_24
           - 87 q_25 - 14 q_26 - 11 q_27 - 47 q_28 - 37 q_29 - q_30 - 99 q_31
           - 20 q_32 - 54 q_33 - 65 q_34 - 69 q_35 - 95 q_36 - 14 q_37
           - 46 q_38 - 70 q_39 - 9 q_40 - 63 q_41 - 97 q_42 - 12 q_43 - 58 q_44
           - 7 q_45 - 82 q_46 - 58 q_47 - 26 q_48 - 25 q_49 - 9 q_50 - 37 q_51
           - 23 q_52 - 22 q_53 - 8 q_54 - 17 q_55 - 62 q_56 - 8 q_57 - 97 q_58
           - 69 q_59 - 25 q_60 - 82 q_61 - 11 q_62 - 63 q_63 - 24 q_64 - q_65
           - 56 q_66 - 14 q_67 - 88 q_68 - 14 q_69 - 51 q_70 - 13 q_71
           - 30 q_72 - 17 q_73 - 7 q_74 - 55 q_75 - 33 q_76 - 99 q_77 - 4 q_78
           - 40 q_79 - 47 q_80 - 43 q_81 - 19 q_82 - 52 q_83 - 24 q_84
           - 61 q_85 - 83 q_86 - 68 q_87 - 5 q_88 - 60 q_89 - 46 q_90 - 68 q_91
           - 90 q_92 - 32 q_93 - 87 q_94 - 45 q_95 - 37 q_96 - 95 q_97
           - 88 q_98 - 64 q_99 - 34 q_100 - 9 q_101 - 11 q_102 - 86 q_103
           - 23 q_104 - 58 q_105 - 53 q_106 - 74 q_107 - 79 q_108 - 99 q_109
           - 43 q_110 - 66 q_111 - 49 q_112 - 96 q_113 - 28 q_114 - 100 q_115
           - 2 q_116 - 6 q_117 - 45 q_118 - 53 q_119  = 0
 c51#1:     = -8628
 c52#2:     = -9133
 c53#3:     = -8823
 c54#4:     = -9324
 c55#5:     = -9313
 c56#6:    q_00 + s_q_00  = 1
 c57#7:    q_01 + s_q_01  = 1
 c58#8:    q_02 + s_q_02  = 1
 c59#9:    q_03 + s_q_03  = 1
 c60#10:   q_04 + s_q_04  = 1
 c61#11:   q_05 + s_q_05  = 1
 c62#12:   q_06 + s_q_06  = 1
 c63#13:   q_07 + s_q_07  = 1
 c64#14:   q_08 + s_q_08  = 1
 c65#15:   q_09 + s_q_09  = 1
 c66#16:   q_10 + s_q_10  = 1
 c67#17:   q_11 + s_q_11  = 1
 c68#18:   q_12 + s_q_12  = 1
 c69#19:   q_13 + s_q_13  = 1
 c70#20:   q_14 + s_q_14  = 1
 c71#21:   q_15 + s_q_15  = 1
 c72#22:   q_16 + s_q_16  = 1
 c73#23:   q_17 + s_q_17  = 1
 c74#24:   q_18 + s_q_18  = 1
 c75#25:   q_19 + s_q_19  = 1
 c76#26:   q_20 + s_q_20  = 1
 c77#27:   q_21 + s_q_21  = 1
 c78#28:   q_22 + s_q_22  = 1
 c79#29:   q_23 + s_q_23  = 1
 c80#30:   q_24 + s_q_24  = 1
 c81#31:   q_25 + s_q_25  = 1
 c82#32:   q_26 + s_q_26  = 1
 c83#33:   q_27 + s_q_27  = 1
 c84#34:   q_28 + s_q_28  = 1
 c85#35:   q_29 + s_q_29  = 1
 c86#36:   q_30 + s_q_30  = 1
 c87#37:   q_31 + s_q_31  = 1
 c88#38:   q_32 + s_q_32  = 1
 c89#39:   q_33 + s_q_33  = 1
 c90#40:   q_34 + s_q_34  = 1
 c91#41:   q_35 + s_q_35  = 1
 c92#42:   q_36 + s_q_36  = 1
 c93#43:   q_37 + s_q_37  = 1
 c94#44:   q_38 + s_q_38  = 1
 c95#45:   q_39 + s_q_39  = 1
 c96#46:   q_40 + s_q_40  = 1
 c97#47:   q_41 + s_q_41  = 1
 c98#48:   q_42 + s_q_42  = 1
 c99#49:   q_43 + s_q_43  = 1
 c100#50:  q_44 + s_q_44  = 1
 c101#51:  q_45 + s_q_45  = 1
 c102#52:  q_46 + s_q_46  = 1
 c103#53:  q_47 + s_q_47  = 1
 c104#54:  q_48 + s_q_48  = 1
 c105#55:  q_49 + s_q_49  = 1
 c106#56:  q_50 + s_q_50  = 1
 c107#57:  q_51 + s_q_51  = 1
 c108#58:  q_52 + s_q_52  = 1
 c109#59:  q_53 + s_q_53  = 1
 c110#60:  q_54 + s_q_54  = 1
 c111#61:  q_55 + s_q_55  = 1
 c112#62:  q_56 + s_q_56  = 1
 c113#63:  q_57 + s_q_57  = 1
 c114#64:  q_58 + s_q_58  = 1
 c115#65:  q_59 + s_q_59  = 1
 c116#66:  q_60 + s_q_60  = 1
 c117#67:  q_61 + s_q_61  = 1
 c118#68:  q_62 + s_q_62  = 1
 c119#69:  q_63 + s_q_63  = 1
 c120#70:  q_64 + s_q_64  = 1
 c121#71:  q_65 + s_q_65  = 1
 c122#72:  q_66 + s_q_66  = 1
 c123#73:  q_67 + s_q_67  = 1
 c124#74:  q_68 + s_q_68  = 1
 c125#75:  q_69 + s_q_69  = 1
 c126#76:  q_70 + s_q_70  = 1
 c127#77:  q_71 + s_q_71  = 1
 c128#78:  q_72 + s_q_72  = 1
 c129#79:  q_73 + s_q_73  = 1
 c130#80:  q_74 + s_q_74  = 1
 c131#81:  q_75 + s_q_75  = 1
 c132#82:  q_76 + s_q_76  = 1
 c133#83:  q_77 + s_q_77  = 1
 c134#84:  q_78 + s_q_78  = 1
 c135#85:  q_79 + s_q_79  = 1
 c136#86:  q_80 + s_q_80  = 1
 c137#87:  q_81 + s_q_81  = 1
 c138#88:  q_82 + s_q_82  = 1
 c139#89:  q_83 + s_q_83  = 1
 c140#90:  q_84 + s_q_84  = 1
 c141#91:  q_85 + s_q_85  = 1
 c142#92:  q_86 + s_q_86  = 1
 c143#93:  q_87 + s_q_87  = 1
 c144#94:  q_88 + s_q_88  = 1
 c145#95:  q_89 + s_q_89  = 1
 c146#96:  q_90 + s_q_90  = 1
 c147#97:  q_91 + s_q_91  = 1
 c148#98:  q_92 + s_q_92  = 1
 c149#99:  q_93 + s_q_93  = 1
 c150#100: q_94 + s_q_94  = 1
 c151#101: q_95 + s_q_95  = 1
 c152#102: q_96 + s_q_96  = 1
 c153#103: q_97 + s_q_97  = 1
 c154#104: q_98 + s_q_98  = 1
 c155#105: q_99 + s_q_99  = 1
 c156#106: q_100 + s_q_100  = 1
 c108#107: q_101 + s_q_101  = 1
 c109#108: q_102 + s_q_102  = 1
 c110#109: q_103 + s_q_103  = 1
 c111#110: q_104 + s_q_104  = 1
 c112#111: q_105 + s_q_105  = 1
 c113#112: q_106 + s_q_106  = 1
 c114#113: q_107 + s_q_107  = 1
 c115#114: q_108 + s_q_108  = 1
 c116#115: q_109 + s_q_109  = 1
 c117#116: q_110 + s_q_110  = 1
 c118#117: q_111 + s_q_111  = 1
 c119#118: q_112 + s_q_112  = 1
 c120#119: q_113 + s_q_113  = 1
 c121#120: q_114 + s_q_114  = 1
 c122#121: q_115 + s_q_115  = 1
 c123#122: q_116 + s_q_116  = 1
 c124#123: q_117 + s_q_117  = 1
 c125#124: q_118 + s_q_118  = 1
 c126#125: q_119 + s_q_119  = 1
Bounds
      y0 Free
End
